(declare-sort Loc 0)
(declare-const f1_0_main_Load Loc)
(declare-const f1944_0_buildExpression_GT Loc)
(declare-const f2554_0_buildExpression_GE Loc)
(declare-const f2651_0_buildExpression_GT Loc)
(declare-const f1999_0_toPostfix_NULL Loc)
(declare-const f2578_0_toPostfix_NULL Loc)
(declare-const __init Loc)
(assert (distinct f1_0_main_Load f1944_0_buildExpression_GT f2554_0_buildExpression_GE f2651_0_buildExpression_GT f1999_0_toPostfix_NULL f2578_0_toPostfix_NULL __init ))

(define-fun cfg_init ( (pc Loc) (src Loc) (rel Bool) ) Bool
  (and (= pc src) rel))

(define-fun cfg_trans2 ( (pc Loc) (src Loc)
                         (pc1 Loc) (dst Loc)
                         (rel Bool) ) Bool
  (and (= pc src) (= pc1 dst) rel))

(define-fun cfg_trans3 ( (pc Loc) (exit Loc)
                         (pc1 Loc) (call Loc)
                         (pc2 Loc) (return Loc)
                         (rel Bool) ) Bool
  (and (= pc exit) (= pc1 call) (= pc2 return) rel))

(define-fun init_main ( (pc Loc) (arg1 Int) (arg2 Int) (arg3 Int) (arg4 Int) (arg5 Int) (arg6 Int) (arg7 Int) (arg8 Int) (arg9 Int) (arg10 Int) ) Bool
  (cfg_init pc __init true))

(define-fun next_main (
                 (pc Loc) (arg1 Int) (arg2 Int) (arg3 Int) (arg4 Int) (arg5 Int) (arg6 Int) (arg7 Int) (arg8 Int) (arg9 Int) (arg10 Int)
                 (pc1 Loc) (arg1P Int) (arg2P Int) (arg3P Int) (arg4P Int) (arg5P Int) (arg6P Int) (arg7P Int) (arg8P Int) (arg9P Int) (arg10P Int)
             ) Bool
  (or
    (cfg_trans2 pc f1_0_main_Load pc1 f1944_0_buildExpression_GT (and (and (and (and (and (and (and (<= arg1P arg1) (> arg2 (- 1))) (<= (+ arg2P 1) arg1)) (> arg1 0)) (> arg1P 0)) (> arg2P (- 1))) (= 1 arg3P)) (= arg2 arg4P)))
    (cfg_trans2 pc f1944_0_buildExpression_GT pc1 f2554_0_buildExpression_GE (and (and (and (and (and (and (and (and (and (<= arg1P arg1) (< arg4 arg3)) (<= (- arg1P 1) arg2)) (<= arg2P arg2)) (> arg1 0)) (> arg2 (- 1))) (> arg1P 0)) (> arg2P (- 1))) (= 1 arg3P)) (= arg4 arg4P)))
    (cfg_trans2 pc f1944_0_buildExpression_GT pc1 f2651_0_buildExpression_GT (and (and (and (and (and (and (and (and (and (and (and (and (and (and (and (and (and (>= arg4 arg3) (> arg4 0)) (< (- arg4 1) arg3)) (<= arg1P arg1)) (<= (- arg1P 1) arg2)) (<= (- arg2P 106) arg2)) (> arg1 0)) (> arg2 (- 1))) (> arg1P 0)) (> arg2P 105)) (= arg3 arg3P)) (= (- arg4 1) arg4P)) (= arg4 arg5P)) (= 40 arg6P)) (= 97 arg7P)) (= 43 arg8P)) (= 98 arg9P)) (= 41 arg10P)))
    (cfg_trans2 pc f2554_0_buildExpression_GE pc1 f2554_0_buildExpression_GE (and (and (and (and (and (and (and (and (and (<= arg1P arg1) (> arg4 arg3)) (<= (- arg1P 1) arg2)) (<= (- arg2P 42) arg2)) (> arg1 0)) (> arg2 (- 1))) (> arg1P 0)) (> arg2P 41)) (= (+ arg3 1) arg3P)) (= arg4 arg4P)))
    (cfg_trans2 pc f2651_0_buildExpression_GT pc1 f1944_0_buildExpression_GT (and (and (and (and (and (and (and (and (and (and (and (and (and (and (<= arg1P arg1) (< arg4 arg3)) (<= (+ arg1P 105) arg2)) (<= arg2P arg2)) (> arg1 0)) (> arg2 105)) (> arg1P 0)) (> arg2P 105)) (= 40 arg6)) (= 97 arg7)) (= 43 arg8)) (= 98 arg9)) (= 41 arg10)) (= (+ arg3 1) arg3P)) (= arg5 arg4P)))
    (cfg_trans2 pc f1944_0_buildExpression_GT pc1 f2651_0_buildExpression_GT (and (and (and (and (and (and (and (and (and (and (and (and (and (and (and (and (and (>= arg4 arg3) (> arg4 0)) (>= (- arg4 1) arg3)) (<= arg1P arg1)) (<= (- arg1P 1) arg2)) (<= (- arg2P 106) arg2)) (> arg1 0)) (> arg2 (- 1))) (> arg1P 0)) (> arg2P 105)) (= arg3 arg3P)) (= (- arg4 1) arg4P)) (= arg4 arg5P)) (= 40 arg6P)) (= 97 arg7P)) (= 43 arg8P)) (= 98 arg9P)) (= 41 arg10P)))
    (cfg_trans2 pc f2651_0_buildExpression_GT pc1 f1944_0_buildExpression_GT (and (and (and (and (and (and (and (and (and (and (and (and (and (and (<= arg1P arg1) (>= arg4 arg3)) (<= (+ arg1P 105) arg2)) (<= (- arg2P 2) arg2)) (> arg1 0)) (> arg2 105)) (> arg1P 0)) (> arg2P 107)) (= 40 arg6)) (= 97 arg7)) (= 43 arg8)) (= 98 arg9)) (= 41 arg10)) (= (+ arg3 1) arg3P)) (= arg5 arg4P)))
    (cfg_trans2 pc f2554_0_buildExpression_GE pc1 f1999_0_toPostfix_NULL (and (and (and (and (and (and (and (and (and (and (and (and (<= arg1P arg2) (<= arg4 arg3)) (<= (+ arg2P 1) arg1)) (<= arg2P arg2)) (<= (+ arg3P 1) arg1)) (<= arg3P arg2)) (<= arg4P arg2)) (> arg1 0)) (> arg2 (- 1))) (> arg1P (- 1))) (> arg2P (- 1))) (> arg3P (- 1))) (> arg4P (- 1))))
    (cfg_trans2 pc f1999_0_toPostfix_NULL pc1 f1999_0_toPostfix_NULL (and (and (and (and (and (and (and (and (and (and (and (and (and (<= (+ arg1P 2) arg1) (<= (+ arg1P 2) arg4)) (<= arg2P arg2)) (<= arg3P arg3)) (<= (+ arg4P 2) arg1)) (<= (+ arg4P 2) arg4)) (> arg1 41)) (> arg2 (- 1))) (> arg3 (- 1))) (> arg4 41)) (> arg1P (- 1))) (> arg2P (- 1))) (> arg3P (- 1))) (> arg4P (- 1))))
    (cfg_trans2 pc f1999_0_toPostfix_NULL pc1 f2578_0_toPostfix_NULL (and (and (and (and (and (<= arg1P arg3) (> arg1 (- 1))) (> arg2 (- 1))) (> arg3 (- 1))) (> arg4 (- 1))) (> arg1P (- 1))))
    (cfg_trans2 pc f1999_0_toPostfix_NULL pc1 f1999_0_toPostfix_NULL (and (and (and (and (and (and (and (and (and (and (and (and (and (<= (+ arg1P 2) arg1) (<= (+ arg1P 2) arg4)) (<= (- arg2P 44) arg2)) (<= arg3P arg3)) (<= (+ arg4P 2) arg1)) (<= (+ arg4P 2) arg4)) (> arg1 43)) (> arg2 (- 1))) (> arg3 (- 1))) (> arg4 43)) (> arg1P (- 1))) (> arg2P 43)) (> arg3P (- 1))) (> arg4P (- 1))))
    (cfg_trans2 pc f1999_0_toPostfix_NULL pc1 f1999_0_toPostfix_NULL (and (and (and (and (and (and (and (and (and (and (and (and (and (<= (+ arg1P 2) arg1) (<= (+ arg1P 2) arg4)) (<= (- arg2P 45) arg2)) (<= arg3P arg3)) (<= (+ arg4P 2) arg1)) (<= (+ arg4P 2) arg4)) (> arg1 44)) (> arg2 (- 1))) (> arg3 (- 1))) (> arg4 44)) (> arg1P (- 1))) (> arg2P 44)) (> arg3P (- 1))) (> arg4P (- 1))))
    (cfg_trans2 pc f1999_0_toPostfix_NULL pc1 f1999_0_toPostfix_NULL (and (and (and (and (and (and (and (and (and (and (and (and (and (<= (+ arg1P 2) arg1) (<= (+ arg1P 2) arg4)) (<= (- arg2P 47) arg2)) (<= arg3P arg3)) (<= (+ arg4P 2) arg1)) (<= (+ arg4P 2) arg4)) (> arg1 46)) (> arg2 (- 1))) (> arg3 (- 1))) (> arg4 46)) (> arg1P (- 1))) (> arg2P 46)) (> arg3P (- 1))) (> arg4P (- 1))))
    (cfg_trans2 pc f1999_0_toPostfix_NULL pc1 f1999_0_toPostfix_NULL (and (and (and (and (and (and (and (and (and (and (and (and (and (<= (+ arg1P 2) arg1) (<= (+ arg1P 2) arg4)) (<= (- arg2P 49) arg2)) (<= arg3P arg3)) (<= (+ arg4P 2) arg1)) (<= (+ arg4P 2) arg4)) (> arg1 48)) (> arg2 (- 1))) (> arg3 (- 1))) (> arg4 48)) (> arg1P (- 1))) (> arg2P 48)) (> arg3P (- 1))) (> arg4P (- 1))))
    (cfg_trans2 pc f1999_0_toPostfix_NULL pc1 f1999_0_toPostfix_NULL (exists ((x103 Int)) (and (and (and (and (and (and (and (and (and (and (and (and (and (<= (+ arg1P 1) arg1) (> x103 47)) (<= (+ arg1P 1) arg4)) (>= arg2 arg2P)) (>= arg1 (+ arg4P 1))) (>= arg4 (+ arg4P 1))) (> arg1 0)) (> arg2 (- 1))) (> arg3 (- 1))) (> arg4 0)) (> arg1P (- 1))) (> arg2P (- 1))) (> arg3P 0)) (> arg4P (- 1)))))
    (cfg_trans2 pc f1999_0_toPostfix_NULL pc1 f1999_0_toPostfix_NULL (exists ((x112 Int)) (and (and (and (and (and (and (and (and (and (and (and (and (and (<= (+ arg1P 1) arg1) (< x112 40)) (<= (+ arg1P 1) arg4)) (<= arg2P arg2)) (<= (+ arg4P 1) arg1)) (<= (+ arg4P 1) arg4)) (> arg1 0)) (> arg2 (- 1))) (> arg3 (- 1))) (> arg4 0)) (> arg1P (- 1))) (> arg2P (- 1))) (> arg3P 0)) (> arg4P (- 1)))))
    (cfg_trans2 pc f1999_0_toPostfix_NULL pc1 f1999_0_toPostfix_NULL (and (and (and (and (and (and (and (and (and (and (and (and (and (<= (+ arg1P 2) arg1) (<= (+ arg1P 2) arg4)) (<= arg2P arg2)) (<= (- arg3P 46) arg3)) (<= (+ arg4P 2) arg1)) (<= (+ arg4P 2) arg4)) (> arg1 45)) (> arg2 (- 1))) (> arg3 (- 1))) (> arg4 45)) (> arg1P (- 1))) (> arg2P (- 1))) (> arg3P 45)) (> arg4P (- 1))))
    (cfg_trans2 pc f1999_0_toPostfix_NULL pc1 f1999_0_toPostfix_NULL (and (and (and (and (and (and (and (and (and (and (and (and (and (<= (+ arg1P 2) arg1) (<= (+ arg1P 2) arg4)) (<= arg2P arg2)) (<= (- arg3P 48) arg3)) (<= (+ arg4P 2) arg1)) (<= (+ arg4P 2) arg4)) (> arg1 47)) (> arg2 (- 1))) (> arg3 (- 1))) (> arg4 47)) (> arg1P (- 1))) (> arg2P (- 1))) (> arg3P 47)) (> arg4P (- 1))))
    (cfg_trans2 pc f1999_0_toPostfix_NULL pc1 f1999_0_toPostfix_NULL (and (and (and (and (and (and (and (and (and (and (and (and (<= (+ arg1P 2) arg1) (<= (+ arg1P 2) arg4)) (<= (+ arg2P 1) arg2)) (<= (+ arg4P 2) arg1)) (<= (+ arg4P 2) arg4)) (> arg1 42)) (> arg2 0)) (> arg3 (- 1))) (> arg4 42)) (> arg1P (- 1))) (> arg2P (- 1))) (> arg3P 0)) (> arg4P (- 1))))
    (cfg_trans2 pc f2578_0_toPostfix_NULL pc1 f2578_0_toPostfix_NULL (and (and (<= (+ arg1P 1) arg1) (> arg1 0)) (> arg1P (- 1))))
    (cfg_trans2 pc __init pc1 f1_0_main_Load true)
  )
)
